%Chk=G8.chk
%nprocshared=8
%mem=1GB
# B3LYP/6-31G** opt=Modredundant

G8

1  1
C 7.595100 38.809700 27.557699
C 8.262500 40.079102 27.021799
C 7.500600 38.766800 29.085100
C 9.683800 40.401299 27.517300
C 7.211800 37.354000 29.601801
C 10.772800 39.364899 27.202700
C 7.541000 37.156200 31.090000
C 10.906900 38.178699 28.167900
C 8.983900 37.487000 31.507999
C 11.346400 38.562099 29.587601
C 10.059400 36.643600 30.804001
C 11.399700 37.357300 30.545799
N 11.958000 37.826099 31.849001
H 6.578500 38.756001 27.145901
H 8.117900 37.930599 27.172300
H 8.278100 40.030602 25.916100
H 7.614900 40.943699 27.262699
H 8.398600 39.149502 29.542299
H 6.682600 39.414501 29.394699
H 9.993200 41.361698 27.056900
H 9.641800 40.634998 28.595800
H 6.169400 37.117699 29.431299
H 7.812100 36.657902 29.027300
H 10.674500 38.981899 26.169100
H 11.747000 39.896500 27.181200
H 6.899100 37.848400 31.647301
H 7.255400 36.161800 31.432699
H 9.946600 37.662102 28.215599
H 11.629500 37.469200 27.760000
H 9.179500 38.531502 31.299000
H 9.069300 37.343300 32.577499
H 12.323600 39.043201 29.539700
H 10.656100 39.307098 29.978300
H 10.225700 35.738300 31.403700
H 9.647900 36.278000 29.850100
H 12.139100 36.629002 30.190201
H 11.657800 38.784401 32.046501
H 12.981300 37.807800 31.830200
H 11.640100 37.225800 32.614700

 * * * * F
