%Chk=G1.chk
%nprocshared=8
%mem=1GB
# B3LYP/6-31G** opt=Modredundant

G1

1  1
C 2.748600 -1.686600 -6.181200
C 2.023200 -0.523100 -5.925200
C 2.832100 -2.684300 -5.209900
C 1.381500 -0.357100 -4.697800
C 2.190500 -2.518400 -3.982600
C 1.465100 -1.354800 -3.726500
C 2.863900 -1.341800 -0.988300
C -0.353300 0.546800 -0.263900
C 0.774300 -1.176500 -2.404000
C 1.645000 -0.498100 -1.338200
N 0.849000 -0.307500 -0.091000
H 3.247000 -1.816300 -7.137400
H 1.957100 0.253400 -6.681700
H 3.395900 -3.590800 -5.409400
H 0.818800 0.552900 -4.507000
H 2.261200 -3.300900 -3.231800
H 2.567300 -2.347400 -0.670700
H 3.540900 -1.444000 -1.843500
H 3.425000 -0.885400 -0.166100
H -0.978300 0.091600 -1.034300
H -0.876100 0.585700 0.693600
H -0.016600 1.539800 -0.567900
H 0.471200 -2.168100 -2.040300
H -0.160700 -0.615900 -2.538700
H 1.961100 0.502400 -1.653000
H 1.455800 0.100500 0.631200
H 0.564000 -1.228300 0.265400

 * * * * F
